\ LP format - for model browsing. Use MPS format to capture full model detail.
Minimize
  0 x[1,1] + 0 x[1,2] + 0 x[1,3] + 0 x[1,4] + 0 x[1,5] + 0 x[2,1] + 0 x[2,2]
   + 0 x[2,3] + 0 x[2,4] + 0 x[2,5] + 0 x[3,1] + 0 x[3,2] + 0 x[3,3]
   + 0 x[3,4] + 0 x[3,5] + 0 x[4,1] + 0 x[4,2] + 0 x[4,3] + 0 x[4,4]
   + 0 x[4,5] + 0 x[1,1] + 0 x[1,2] + 0 x[1,3] + 0 x[1,4] + 0 x[1,5]
   + 0 x[2,1] + 0 x[2,2] + 0 x[2,3] + 0 x[2,4] + 0 x[2,5] + 0 x[3,1]
   + 0 x[3,2] + 0 x[3,3] + 0 x[3,4] + 0 x[3,5] + 0 x[4,1] + 0 x[4,2]
   + 0 x[4,3] + 0 x[4,4] + 0 x[4,5] + 3 x[1,1] + 6 x[1,2] + 9 x[1,3]
   + 12 x[1,4] + 12 x[1,5] + 15 x[2,1] + 18 x[2,2] + 21 x[2,3] + 24 x[2,4]
   + 24 x[2,5] + 27 x[3,1] + 30 x[3,2] + 33 x[3,3] + 36 x[3,4] + 36 x[3,5]
   + 39 x[4,1] + 42 x[4,2] + 45 x[4,3] + 48 x[4,4] + 48 x[4,5]
Subject To
 Flight_1: x[1,1] + x[1,2] + x[1,3] + x[1,4] + x[1,5] = 1
 Flight_2: x[2,1] + x[2,2] + x[2,3] + x[2,4] + x[2,5] = 1
 Flight_3: x[3,1] + x[3,2] + x[3,3] + x[3,4] + x[3,5] = 1
 Flight_4: x[4,1] + x[4,2] + x[4,3] + x[4,4] + x[4,5] = 1
 Gate_1: x[1,1] + x[2,1] <= 1
 Gate_2: x[1,2] + x[2,2] <= 1
 Gate_3: x[1,3] + x[2,3] <= 1
 Gate_4: x[1,4] + x[2,4] <= 1
 Gate_5: x[1,5] + x[2,5] <= 1
 Gate_1: x[1,1] + x[2,1] + x[3,1] <= 1
 Gate_2: x[1,2] + x[2,2] + x[3,2] <= 1
 Gate_3: x[1,3] + x[2,3] + x[3,3] <= 1
 Gate_4: x[1,4] + x[2,4] + x[3,4] <= 1
 Gate_5: x[1,5] + x[2,5] + x[3,5] <= 1
 Gate_1: x[3,1] + x[4,1] <= 1
 Gate_2: x[3,2] + x[4,2] <= 1
 Gate_3: x[3,3] + x[4,3] <= 1
 Gate_4: x[3,4] + x[4,4] <= 1
 Gate_5: x[3,5] + x[4,5] <= 1
Bounds
Binaries
 x[1,1] x[1,2] x[1,3] x[1,4] x[1,5] x[2,1] x[2,2] x[2,3] x[2,4] x[2,5]
 x[3,1] x[3,2] x[3,3] x[3,4] x[3,5] x[4,1] x[4,2] x[4,3] x[4,4] x[4,5]
 x[1,1] x[1,2] x[1,3] x[1,4] x[1,5] x[2,1] x[2,2] x[2,3] x[2,4] x[2,5]
 x[3,1] x[3,2] x[3,3] x[3,4] x[3,5] x[4,1] x[4,2] x[4,3] x[4,4] x[4,5]
 x[1,1] x[1,2] x[1,3] x[1,4] x[1,5] x[2,1] x[2,2] x[2,3] x[2,4] x[2,5]
 x[3,1] x[3,2] x[3,3] x[3,4] x[3,5] x[4,1] x[4,2] x[4,3] x[4,4] x[4,5]
End
